Solver command line: ['C:\\Program Files\\IBM\\ILOG\\CPLEX_Studio221\\cplex\\bin\\x64_win64\\cplex.exe']


Welcome to IBM(R) ILOG(R) CPLEX(R) Interactive Optimizer 22.1.0.0
  with Simplex, Mixed Integer & Barrier Optimizers
5725-A06 5725-A29 5724-Y48 5724-Y49 5724-Y54 5724-Y55 5655-Y21
Copyright IBM Corp. 1988, 2022.  All Rights Reserved.

Type 'help' for a list of available commands.
Type 'help' followed by a command name for more
information on commands.

CPLEX> Logfile 'cplex.log' closed.
Logfile 'data\30_bus\3.5_trips_per_bus\3_0.6_3\step2.log' open.
CPLEX> New value for mixed integer solutions limit: 1
CPLEX> New value for time limit in seconds: 500
CPLEX> New value for default parallel thread count: 1
CPLEX> Problem 'C:\Users\Mathis\AppData\Local\Temp\tmp2h7sxjhf.pyomo.lp' read.
Read time = 0.09 sec. (10.46 ticks)
CPLEX> Problem name         : C:\Users\Mathis\AppData\Local\Temp\tmp2h7sxjhf.pyomo.lp
Objective sense      : Minimize
Variables            :   76785  [Nneg: 15128,  Binary: 61657]
Objective nonzeros   :       1
Linear constraints   :   77791  [Less: 75720,  Greater: 345,  Equal: 1726]
  Nonzeros           :  412386
  RHS nonzeros       :   63669

Variables            : Min LB: 0.000000         Max UB: 1.000000       
Objective nonzeros   : Min   : 1.240367e+07     Max   : 1.240367e+07   
Linear constraints   :
  Nonzeros           : Min   : 0.2192982        Max   : 10000.00       
  RHS nonzeros       : Min   : 1.000000         Max   : 10000.00       
CPLEX> Version identifier: 22.1.0.0 | 2022-03-09 | 1a383f8ce
CPXPARAM_Threads                                 1
CPXPARAM_MIP_Limits_Solutions                    1
CPXPARAM_TimeLimit                               500
Tried aggregator 2 times.
MIP Presolve eliminated 67255 rows and 40347 columns.
MIP Presolve modified 56314 coefficients.
Aggregator did 584 substitutions.
Reduced MIP has 9952 rows, 35854 columns, and 104090 nonzeros.
Reduced MIP has 35041 binaries, 0 generals, 0 SOSs, and 0 indicators.
Presolve time = 0.19 sec. (181.32 ticks)
Probing time = 0.02 sec. (11.07 ticks)
Tried aggregator 2 times.
Detecting symmetries...
Aggregator did 3 substitutions.
Reduced MIP has 9949 rows, 35851 columns, and 104084 nonzeros.
Reduced MIP has 35041 binaries, 0 generals, 0 SOSs, and 0 indicators.
Presolve time = 0.06 sec. (90.19 ticks)
Probing time = 0.03 sec. (11.00 ticks)
Clique table members: 3540.
MIP emphasis: balance optimality and feasibility.
MIP search method: dynamic search.
Parallel mode: none, using 1 thread.
Root relaxation solution time = 0.14 sec. (260.62 ticks)

        Nodes                                         Cuts/
   Node  Left     Objective  IInf  Best Integer    Best Bound    ItCnt     Gap

      0     0   1.24037e+07   730                 1.24037e+07     2864         
      0     0   1.24037e+07   266                    Cuts: 26     3696         
      0     0   1.24037e+07   388                   Cuts: 909     4627         
      0     0   1.24037e+07   176                   Cuts: 103     5118         
      0     0   1.24037e+07   290                   Cuts: 473     6136         
      0     2   1.24037e+07    61                 1.24037e+07     6136         
Elapsed time = 5.89 sec. (10399.52 ticks, tree = 0.01 MB, solutions = 0)
      2     4   1.24037e+07   201                 1.24037e+07     7801         
     13    15   1.24037e+07   242                 1.24037e+07     8520         
*    20+    2                       1.24037e+07   1.24037e+07             0.00%

Clique cuts applied:  4
Implied bound cuts applied:  256
Flow cuts applied:  2
Mixed integer rounding cuts applied:  293
Multi commodity flow cuts applied:  10
Lift and project cuts applied:  3
Gomory fractional cuts applied:  21

Root node processing (before b&c):
  Real time             =    5.84 sec. (10361.71 ticks)
Sequential b&c:
  Real time             =    0.58 sec. (1268.77 ticks)
                          ------------
Total (root+branch&cut) =    6.42 sec. (11630.48 ticks)

Solution pool: 1 solution saved.

MIP - Integer optimal solution:  Objective =  1.2403672000e+07
Solution time =    6.44 sec.  Iterations = 8984  Nodes = 20
Deterministic time = 11630.70 ticks  (1806.57 ticks/sec)

CPLEX> Incumbent solution written to file 'C:\Users\Mathis\AppData\Local\Temp\tmphm8ugos0.cplex.sol'.
CPLEX> 
